(set-info :smt-lib-version 2.6)
(set-logic QF_SLIA)
(set-info :source |
Generated by: Dmitry Blotsky1, Federico Mora, Murphy Berzish, Yunhui Zheng, Ifaz Kabir, Vijay Ganesh, Zhengyang Lu
Generated on: 2018-01-24
Generator: StringFuzz
Application: Evaluate string solvers
Target solver: Z3str3, CVC4, Z3str2, Norn
Publications: Blotsky, D., Mora, F., Berzish, M., Zheng, Y., Kabir, I., & Ganesh, V. (2018). Stringfuzz: A fuzzer for string solvers. In CAV 2018.
|)
(set-info :license "https://creativecommons.org/licenses/by/4.0/")
(set-info :category "random")
(set-info :status unknown)

(declare-const x String)
(declare-const y String)
(declare-const m String)
(declare-const n String)
(assert (str.in_re x (re.+ (str.to_re "bnb"))))
(assert (= (str.to.int x) 6))
(assert (not (= x "cC")))
(assert (not (= x "f")))
(assert (not (= x "CC-Q\\\\")))
(assert (not (= x "C-_o")))
(assert (not (= x "ii")))
(assert (not (= x "b.F0qb")))
(assert (not (= x "{U'\\r'i")))
(check-sat)

(exit)
